












Successfully set CPX_PARAM_PARALLELMODE and the status is 0
Successfully set CPX_PARAM_THREADS and the status is 0
Successfully set CPX_PARAM_AUXROOTTHREADS and the status is 0
Successfully set CPXPARAM_MIP_Strategy_PresolveNode and the status is 0
  >> Time spent in FVAc: 21591.9 seconds.

Successfully set CPX_PARAM_PARALLELMODE and the status is 0
Successfully set CPX_PARAM_THREADS and the status is 0
Successfully set CPX_PARAM_AUXROOTTHREADS and the status is 0
Successfully set CPXPARAM_MIP_Strategy_PresolveNode and the status is 0
  >> Time spent in FVAc: 21758.0 seconds.


outputData =

    outArray0: [1 2 3 4 5 6 7 8 9 10 11 12 13 14 15 16 17 18 19 20 21 22 23 24 25 26 27 28 29 30 31 32]
    outArray2: [1x32 double]
    outArray3: [1x32 double]
    outArray4: [1x32 double]

>> nworkers = 32,        model = harvey 21768.8
>> include =[CPLEXpath '/include'];IdleTimeout has been reached.
Parallel pool using the 'local' profile is shutting down.                                  run_exps                        Solver: cplexint
Multi-process version with 32 workers
